100 8
284 227
753 607
539 771
119 868
895 808
846 763
552 441
118 372
154 844
634 342
448 158
387 471
852 374
375 143
227 350
167 199
717 213
834 233
722 429
720 497
72 242
475 394
322 581
333 217
271 267
483 861
601 280
526 803
439 782
852 773
796 643
763 658
177 863
233 236
387 915
703 405
650 617
306 247
401 899
263 214
653 401
533 198
379 81
552 920
310 105
522 391
270 135
108 271
942 756
91 266
644 342
291 487
607 189
167 394
432 126
297 467
764 266
291 658
438 389
668 663
629 496
462 535
347 639
243 209
337 626
607 596
500 313
616 196
544 293
443 894
373 938
721 315
180 232
299 251
38 919
789 258
701 295
599 441
246 514
619 496
636 617
595 225
433 799
220 498
597 626
318 575
825 304
339 163
642 639
863 373
47 852
544 304
283 150
185 121
708 732
150 218
413 555
421 873
233 127
623 757
